proyfinal/src/viki/013/andrea/andrea-localstore/experimentInOfficeAgust.take6/worker_4/18e36143-00f6-4d9a-bf49-c0239144c6a4.als.cnf.out
Reading from standard input... Use '--help' for help.
============================[ Problem Statistics ]=============================
|                                                                             |
|  Number of variables:         87638                                         |
|  Number of clauses:          161767                                         |
|  Parse time:                   0.03 s                                       |
|                                                                             |
============================[ Search Statistics ]==============================
| Conflicts |          ORIGINAL         |          LEARNT          | Progress |
|           |    Vars  Clauses Literals |    Limit  Clauses Lit/Cl |          |
===============================================================================
|       100 |   66674   120930   301130 |    44341      100     12 | 23.921 % |
|       250 |   66674   120930   301130 |    48775      250     20 | 23.921 % |
|       475 |   66674   120930   301130 |    53652      475     49 | 23.921 % |
|       812 |   66674   120930   301130 |    59017      812     48 | 23.921 % |
|      1318 |   62398   106347   264924 |    64919     1308     46 | 28.800 % |
|      2077 |   62320   106139   264413 |    71411     2064     51 | 28.889 % |
|      3216 |   62320   106139   264413 |    78552     3203     60 | 28.889 % |
|      4924 |   62231   105789   263607 |    86408     4674     58 | 28.991 % |
|      7486 |   61756   103837   258983 |    95048     7216     66 | 29.533 % |
|     11330 |   61101   101389   253273 |   104553    10180     71 | 30.280 % |
|     17096 |   59548    96023   239797 |   115009    14507     83 | 32.052 % |
===============================================================================
restarts              : 86
conflicts             : 23726          (8474 /sec)
decisions             : 102741         (0.00 % random) (36694 /sec)
propagations          : 32880451       (11743224 /sec)
conflict literals     : 1829930        (38.85 % deleted)
Memory used           : 42.64 MB
CPU time              : 2.79995 s

INDETERMINATE
